min: c;

c = 3.55748955074059 * u4_t1_h1 + 2.98198312138337 * u4_t1_h2 + 3.01665627864272 * u4_t1_h3 + 2.95112482372876 * u4_t1_h4 + 2.95112482372876 * u4_t10_h4 + 3.94078676730146 * u4_t1_h5 + 3.94078676730146 * u4_t10_h5 + 4.30719312447953 * u4_t1_h6 + 4.30719312447953 * u4_t10_h6 + 3.96287031898745 * u4_t1_h7 + 3.96287031898745 * u4_t10_h7 + 5.46215717484028 * u4_t1_h8 + 5.46215717484028 * u4_t9_h8 + 5.46215717484028 * u4_t10_h8 + 5.44042492588728 * u4_t9_h9 + 5.44042492588728 * u4_t10_h9 + 4.93905266007066 * u4_t9_h10 + 4.93905266007066 * u4_t10_h10 + 4.37916244244687 * u4_t2_h11 + 4.37916244244687 * u4_t4_h11 + 4.37916244244687 * u4_t9_h11 + 4.37916244244687 * u4_t10_h11 + 6.67604422490734 * u4_t2_h12 + 6.67604422490734 * u4_t3_h12 + 6.67604422490734 * u4_t4_h12 + 6.67604422490734 * u4_t8_h12 + 6.67604422490734 * u4_t9_h12 + 6.67604422490734 * u4_t10_h12 + 4.2824515096109 * u4_t2_h13 + 4.2824515096109 * u4_t3_h13 + 4.2824515096109 * u4_t4_h13 + 4.2824515096109 * u4_t8_h13 + 4.2824515096109 * u4_t9_h13 + 4.94211331127989 * u4_t2_h14 + 4.94211331127989 * u4_t3_h14 + 4.94211331127989 * u4_t4_h14 + 4.94211331127989 * u4_t8_h14 + 4.94211331127989 * u4_t9_h14 + 5.78731649188055 * u4_t2_h15 + 5.78731649188055 * u4_t3_h15 + 5.78731649188055 * u4_t4_h15 + 5.78731649188055 * u4_t8_h15 + 5.78731649188055 * u4_t9_h15 + 5.82884568597013 * u4_t2_h16 + 5.82884568597013 * u4_t3_h16 + 5.82884568597013 * u4_t4_h16 + 5.82884568597013 * u4_t5_h16 + 5.82884568597013 * u4_t8_h16 + 5.82884568597013 * u4_t9_h16 + 6.15170329350388 * u4_t2_h17 + 6.15170329350388 * u4_t3_h17 + 6.15170329350388 * u4_t5_h17 + 6.15170329350388 * u4_t8_h17 + 6.15170329350388 * u4_t9_h17 + 6.12522959204717 * u4_t2_h18 + 6.12522959204717 * u4_t3_h18 + 6.12522959204717 * u4_t5_h18 + 6.12522959204717 * u4_t8_h18 + 6.12522959204717 * u4_t9_h18 + 5.19393816692988 * u4_t2_h19 + 5.19393816692988 * u4_t3_h19 + 5.19393816692988 * u4_t6_h19 + 5.19393816692988 * u4_t8_h19 + 5.19393816692988 * u4_t9_h19 + 5.48929245584057 * u4_t2_h20 + 5.48929245584057 * u4_t6_h20 + 5.48929245584057 * u4_t9_h20 + 5.69074998401818 * u4_t6_h21 + 5.25527026365256 * u4_t6_h22 + 5.25527026365256 * u4_t7_h22 + 5.85074557020455 * u4_t6_h23 + 5.85074557020455 * u4_t7_h23;
0 <= u4_t1_h1 <= 1;
0 <= u4_t1_h2 <= 1;
0 <= u4_t1_h3 <= 1;
0 <= u4_t1_h4 <= 1;
0 <= u4_t1_h5 <= 1;
0 <= u4_t1_h6 <= 1;
0 <= u4_t1_h7 <= 1;
0 <= u4_t1_h8 <= 1;
u4_t1_h1 + u4_t1_h2 + u4_t1_h3 + u4_t1_h4 + u4_t1_h5 + u4_t1_h6 + u4_t1_h7 + u4_t1_h8 = 1;
0 <= u4_t2_h11 <= 1;
0 <= u4_t2_h12 <= 1;
0 <= u4_t2_h13 <= 1;
0 <= u4_t2_h14 <= 1;
0 <= u4_t2_h15 <= 1;
0 <= u4_t2_h16 <= 1;
0 <= u4_t2_h17 <= 1;
0 <= u4_t2_h18 <= 1;
0 <= u4_t2_h19 <= 1;
0 <= u4_t2_h20 <= 1;
u4_t2_h11 + u4_t2_h12 + u4_t2_h13 + u4_t2_h14 + u4_t2_h15 + u4_t2_h16 + u4_t2_h17 + u4_t2_h18 + u4_t2_h19 + u4_t2_h20 = 2;
0 <= u4_t3_h12 <= 1;
0 <= u4_t3_h13 <= 1;
0 <= u4_t3_h14 <= 1;
0 <= u4_t3_h15 <= 1;
0 <= u4_t3_h16 <= 1;
0 <= u4_t3_h17 <= 1;
0 <= u4_t3_h18 <= 1;
0 <= u4_t3_h19 <= 1;
u4_t3_h12 + u4_t3_h13 + u4_t3_h14 + u4_t3_h15 + u4_t3_h16 + u4_t3_h17 + u4_t3_h18 + u4_t3_h19 = 3;
0 <= u4_t4_h11 <= 1;
0 <= u4_t4_h12 <= 1;
0 <= u4_t4_h13 <= 1;
0 <= u4_t4_h14 <= 1;
0 <= u4_t4_h15 <= 1;
0 <= u4_t4_h16 <= 1;
u4_t4_h11 + u4_t4_h12 + u4_t4_h13 + u4_t4_h14 + u4_t4_h15 + u4_t4_h16 = 3;
0 <= u4_t5_h16 <= 1;
0 <= u4_t5_h17 <= 1;
0 <= u4_t5_h18 <= 1;
u4_t5_h16 + u4_t5_h17 + u4_t5_h18 = 1;
0 <= u4_t6_h19 <= 1;
0 <= u4_t6_h20 <= 1;
0 <= u4_t6_h21 <= 1;
0 <= u4_t6_h22 <= 1;
0 <= u4_t6_h23 <= 1;
u4_t6_h19 + u4_t6_h20 + u4_t6_h21 + u4_t6_h22 + u4_t6_h23 = 3;
0 <= u4_t7_h22 <= 1;
0 <= u4_t7_h23 <= 1;
u4_t7_h22 + u4_t7_h23 = 1;
0 <= u4_t8_h12 <= 1;
0 <= u4_t8_h13 <= 1;
0 <= u4_t8_h14 <= 1;
0 <= u4_t8_h15 <= 1;
0 <= u4_t8_h16 <= 1;
0 <= u4_t8_h17 <= 1;
0 <= u4_t8_h18 <= 1;
0 <= u4_t8_h19 <= 1;
u4_t8_h12 + u4_t8_h13 + u4_t8_h14 + u4_t8_h15 + u4_t8_h16 + u4_t8_h17 + u4_t8_h18 + u4_t8_h19 = 2;
0 <= u4_t9_h8 <= 1;
0 <= u4_t9_h9 <= 1;
0 <= u4_t9_h10 <= 1;
0 <= u4_t9_h11 <= 1;
0 <= u4_t9_h12 <= 1;
0 <= u4_t9_h13 <= 1;
0 <= u4_t9_h14 <= 1;
0 <= u4_t9_h15 <= 1;
0 <= u4_t9_h16 <= 1;
0 <= u4_t9_h17 <= 1;
0 <= u4_t9_h18 <= 1;
0 <= u4_t9_h19 <= 1;
0 <= u4_t9_h20 <= 1;
u4_t9_h8 + u4_t9_h9 + u4_t9_h10 + u4_t9_h11 + u4_t9_h12 + u4_t9_h13 + u4_t9_h14 + u4_t9_h15 + u4_t9_h16 + u4_t9_h17 + u4_t9_h18 + u4_t9_h19 + u4_t9_h20 = 2;
0 <= u4_t10_h4 <= 1;
0 <= u4_t10_h5 <= 1;
0 <= u4_t10_h6 <= 1;
0 <= u4_t10_h7 <= 1;
0 <= u4_t10_h8 <= 1;
0 <= u4_t10_h9 <= 1;
0 <= u4_t10_h10 <= 1;
0 <= u4_t10_h11 <= 1;
0 <= u4_t10_h12 <= 1;
u4_t10_h4 + u4_t10_h5 + u4_t10_h6 + u4_t10_h7 + u4_t10_h8 + u4_t10_h9 + u4_t10_h10 + u4_t10_h11 + u4_t10_h12 = 2;
